
%FILE DATA:	Soccer Computational Problem for MiniZinc Models	%
%AUTHOR:	Jack Wall	%
%CONTACT:  	116397063@umail.ucc.ie			%
%LAST UPDATE:	03/02/2020, 18:19:35						%
%DESCRIPTION: 	77 games played with 33 games left				%


n=11; %number of teams

%Games to play
games=[|2,4|6,3|5,4|9,10|10,1|5,11|3,11|1,9|7,3|9,8|9,5|5,7|8,1|11,4|10,8|4,7|10,5|11,5|8,7|2,7|6,4|3,9|3,10|10,9|5,10|7,9|7,8|2,6|11,10|6,8|3,1|1,4|4,9|];

%Initial points
iPoints=[16,18,22,18,21,22,23,19,20,16,17];

%POSITION CONSTRAINTS
% [|teamID, operator, position|...]
% operators index:
%  1 for =  operator
%  2 for >  operator
%  3 for >= operator
%  4 for <  operator
%  5 for <= operator
positionConstraints=[|9,3,1|5,5,2|7,3,3|6,5,4|3,2,4|];